p wcnf 45 555 16
1 1 6 11 16 21 26 31 36 41 0
2 2 7 12 17 22 27 32 37 42 0
3 3 8 13 18 23 28 33 38 43 0
4 4 9 14 19 24 29 34 39 44 0
5 5 10 15 20 25 30 35 40 45 0
16 -1 -7 0
16 -1 -8 0
16 -1 -9 0
16 -1 -10 0
16 -2 -6 0
16 -2 -8 0
16 -2 -9 0
16 -2 -10 0
16 -3 -6 0
16 -3 -7 0
16 -3 -9 0
16 -3 -10 0
16 -4 -6 0
16 -4 -7 0
16 -4 -8 0
16 -4 -10 0
16 -5 -6 0
16 -5 -7 0
16 -5 -8 0
16 -5 -9 0
16 -1 -17 0
16 -1 -18 0
16 -1 -19 0
16 -1 -20 0
16 -2 -16 0
16 -2 -18 0
16 -2 -19 0
16 -2 -20 0
16 -3 -16 0
16 -3 -17 0
16 -3 -19 0
16 -3 -20 0
16 -4 -16 0
16 -4 -17 0
16 -4 -18 0
16 -4 -20 0
16 -5 -16 0
16 -5 -17 0
16 -5 -18 0
16 -5 -19 0
16 -1 -22 0
16 -1 -23 0
16 -1 -24 0
16 -1 -25 0
16 -2 -21 0
16 -2 -23 0
16 -2 -24 0
16 -2 -25 0
16 -3 -21 0
16 -3 -22 0
16 -3 -24 0
16 -3 -25 0
16 -4 -21 0
16 -4 -22 0
16 -4 -23 0
16 -4 -25 0
16 -5 -21 0
16 -5 -22 0
16 -5 -23 0
16 -5 -24 0
16 -1 -27 0
16 -1 -28 0
16 -1 -29 0
16 -1 -30 0
16 -2 -26 0
16 -2 -28 0
16 -2 -29 0
16 -2 -30 0
16 -3 -26 0
16 -3 -27 0
16 -3 -29 0
16 -3 -30 0
16 -4 -26 0
16 -4 -27 0
16 -4 -28 0
16 -4 -30 0
16 -5 -26 0
16 -5 -27 0
16 -5 -28 0
16 -5 -29 0
16 -1 -37 0
16 -1 -38 0
16 -1 -39 0
16 -1 -40 0
16 -2 -36 0
16 -2 -38 0
16 -2 -39 0
16 -2 -40 0
16 -3 -36 0
16 -3 -37 0
16 -3 -39 0
16 -3 -40 0
16 -4 -36 0
16 -4 -37 0
16 -4 -38 0
16 -4 -40 0
16 -5 -36 0
16 -5 -37 0
16 -5 -38 0
16 -5 -39 0
16 -1 -42 0
16 -1 -43 0
16 -1 -44 0
16 -1 -45 0
16 -2 -41 0
16 -2 -43 0
16 -2 -44 0
16 -2 -45 0
16 -3 -41 0
16 -3 -42 0
16 -3 -44 0
16 -3 -45 0
16 -4 -41 0
16 -4 -42 0
16 -4 -43 0
16 -4 -45 0
16 -5 -41 0
16 -5 -42 0
16 -5 -43 0
16 -5 -44 0
16 -6 -12 0
16 -6 -13 0
16 -6 -14 0
16 -6 -15 0
16 -7 -11 0
16 -7 -13 0
16 -7 -14 0
16 -7 -15 0
16 -8 -11 0
16 -8 -12 0
16 -8 -14 0
16 -8 -15 0
16 -9 -11 0
16 -9 -12 0
16 -9 -13 0
16 -9 -15 0
16 -10 -11 0
16 -10 -12 0
16 -10 -13 0
16 -10 -14 0
16 -6 -27 0
16 -6 -28 0
16 -6 -29 0
16 -6 -30 0
16 -7 -26 0
16 -7 -28 0
16 -7 -29 0
16 -7 -30 0
16 -8 -26 0
16 -8 -27 0
16 -8 -29 0
16 -8 -30 0
16 -9 -26 0
16 -9 -27 0
16 -9 -28 0
16 -9 -30 0
16 -10 -26 0
16 -10 -27 0
16 -10 -28 0
16 -10 -29 0
16 -6 -32 0
16 -6 -33 0
16 -6 -34 0
16 -6 -35 0
16 -7 -31 0
16 -7 -33 0
16 -7 -34 0
16 -7 -35 0
16 -8 -31 0
16 -8 -32 0
16 -8 -34 0
16 -8 -35 0
16 -9 -31 0
16 -9 -32 0
16 -9 -33 0
16 -9 -35 0
16 -10 -31 0
16 -10 -32 0
16 -10 -33 0
16 -10 -34 0
16 -11 -27 0
16 -11 -28 0
16 -11 -29 0
16 -11 -30 0
16 -12 -26 0
16 -12 -28 0
16 -12 -29 0
16 -12 -30 0
16 -13 -26 0
16 -13 -27 0
16 -13 -29 0
16 -13 -30 0
16 -14 -26 0
16 -14 -27 0
16 -14 -28 0
16 -14 -30 0
16 -15 -26 0
16 -15 -27 0
16 -15 -28 0
16 -15 -29 0
16 -11 -32 0
16 -11 -33 0
16 -11 -34 0
16 -11 -35 0
16 -12 -31 0
16 -12 -33 0
16 -12 -34 0
16 -12 -35 0
16 -13 -31 0
16 -13 -32 0
16 -13 -34 0
16 -13 -35 0
16 -14 -31 0
16 -14 -32 0
16 -14 -33 0
16 -14 -35 0
16 -15 -31 0
16 -15 -32 0
16 -15 -33 0
16 -15 -34 0
16 -21 -27 0
16 -21 -28 0
16 -21 -29 0
16 -21 -30 0
16 -22 -26 0
16 -22 -28 0
16 -22 -29 0
16 -22 -30 0
16 -23 -26 0
16 -23 -27 0
16 -23 -29 0
16 -23 -30 0
16 -24 -26 0
16 -24 -27 0
16 -24 -28 0
16 -24 -30 0
16 -25 -26 0
16 -25 -27 0
16 -25 -28 0
16 -25 -29 0
16 -31 -37 0
16 -31 -38 0
16 -31 -39 0
16 -31 -40 0
16 -32 -36 0
16 -32 -38 0
16 -32 -39 0
16 -32 -40 0
16 -33 -36 0
16 -33 -37 0
16 -33 -39 0
16 -33 -40 0
16 -34 -36 0
16 -34 -37 0
16 -34 -38 0
16 -34 -40 0
16 -35 -36 0
16 -35 -37 0
16 -35 -38 0
16 -35 -39 0
16 -31 -42 0
16 -31 -43 0
16 -31 -44 0
16 -31 -45 0
16 -32 -41 0
16 -32 -43 0
16 -32 -44 0
16 -32 -45 0
16 -33 -41 0
16 -33 -42 0
16 -33 -44 0
16 -33 -45 0
16 -34 -41 0
16 -34 -42 0
16 -34 -43 0
16 -34 -45 0
16 -35 -41 0
16 -35 -42 0
16 -35 -43 0
16 -35 -44 0
16 -1 -6 0
16 -1 -11 0
16 -1 -16 0
16 -1 -21 0
16 -1 -26 0
16 -1 -31 0
16 -1 -36 0
16 -1 -41 0
16 -2 -7 0
16 -2 -12 0
16 -2 -17 0
16 -2 -22 0
16 -2 -27 0
16 -2 -32 0
16 -2 -37 0
16 -2 -42 0
16 -3 -8 0
16 -3 -13 0
16 -3 -18 0
16 -3 -23 0
16 -3 -28 0
16 -3 -33 0
16 -3 -38 0
16 -3 -43 0
16 -4 -9 0
16 -4 -14 0
16 -4 -19 0
16 -4 -24 0
16 -4 -29 0
16 -4 -34 0
16 -4 -39 0
16 -4 -44 0
16 -5 -10 0
16 -5 -15 0
16 -5 -20 0
16 -5 -25 0
16 -5 -30 0
16 -5 -35 0
16 -5 -40 0
16 -5 -45 0
16 -6 -11 0
16 -6 -16 0
16 -6 -21 0
16 -6 -26 0
16 -6 -31 0
16 -6 -36 0
16 -6 -41 0
16 -7 -12 0
16 -7 -17 0
16 -7 -22 0
16 -7 -27 0
16 -7 -32 0
16 -7 -37 0
16 -7 -42 0
16 -8 -13 0
16 -8 -18 0
16 -8 -23 0
16 -8 -28 0
16 -8 -33 0
16 -8 -38 0
16 -8 -43 0
16 -9 -14 0
16 -9 -19 0
16 -9 -24 0
16 -9 -29 0
16 -9 -34 0
16 -9 -39 0
16 -9 -44 0
16 -10 -15 0
16 -10 -20 0
16 -10 -25 0
16 -10 -30 0
16 -10 -35 0
16 -10 -40 0
16 -10 -45 0
16 -11 -16 0
16 -11 -21 0
16 -11 -26 0
16 -11 -31 0
16 -11 -36 0
16 -11 -41 0
16 -12 -17 0
16 -12 -22 0
16 -12 -27 0
16 -12 -32 0
16 -12 -37 0
16 -12 -42 0
16 -13 -18 0
16 -13 -23 0
16 -13 -28 0
16 -13 -33 0
16 -13 -38 0
16 -13 -43 0
16 -14 -19 0
16 -14 -24 0
16 -14 -29 0
16 -14 -34 0
16 -14 -39 0
16 -14 -44 0
16 -15 -20 0
16 -15 -25 0
16 -15 -30 0
16 -15 -35 0
16 -15 -40 0
16 -15 -45 0
16 -16 -21 0
16 -16 -26 0
16 -16 -31 0
16 -16 -36 0
16 -16 -41 0
16 -17 -22 0
16 -17 -27 0
16 -17 -32 0
16 -17 -37 0
16 -17 -42 0
16 -18 -23 0
16 -18 -28 0
16 -18 -33 0
16 -18 -38 0
16 -18 -43 0
16 -19 -24 0
16 -19 -29 0
16 -19 -34 0
16 -19 -39 0
16 -19 -44 0
16 -20 -25 0
16 -20 -30 0
16 -20 -35 0
16 -20 -40 0
16 -20 -45 0
16 -21 -26 0
16 -21 -31 0
16 -21 -36 0
16 -21 -41 0
16 -22 -27 0
16 -22 -32 0
16 -22 -37 0
16 -22 -42 0
16 -23 -28 0
16 -23 -33 0
16 -23 -38 0
16 -23 -43 0
16 -24 -29 0
16 -24 -34 0
16 -24 -39 0
16 -24 -44 0
16 -25 -30 0
16 -25 -35 0
16 -25 -40 0
16 -25 -45 0
16 -26 -31 0
16 -26 -36 0
16 -26 -41 0
16 -27 -32 0
16 -27 -37 0
16 -27 -42 0
16 -28 -33 0
16 -28 -38 0
16 -28 -43 0
16 -29 -34 0
16 -29 -39 0
16 -29 -44 0
16 -30 -35 0
16 -30 -40 0
16 -30 -45 0
16 -31 -36 0
16 -31 -41 0
16 -32 -37 0
16 -32 -42 0
16 -33 -38 0
16 -33 -43 0
16 -34 -39 0
16 -34 -44 0
16 -35 -40 0
16 -35 -45 0
16 -36 -41 0
16 -37 -42 0
16 -38 -43 0
16 -39 -44 0
16 -40 -45 0
16 -1 -2 0
16 -1 -3 0
16 -1 -4 0
16 -1 -5 0
16 -2 -3 0
16 -2 -4 0
16 -2 -5 0
16 -3 -4 0
16 -3 -5 0
16 -4 -5 0
16 -6 -7 0
16 -6 -8 0
16 -6 -9 0
16 -6 -10 0
16 -7 -8 0
16 -7 -9 0
16 -7 -10 0
16 -8 -9 0
16 -8 -10 0
16 -9 -10 0
16 -11 -12 0
16 -11 -13 0
16 -11 -14 0
16 -11 -15 0
16 -12 -13 0
16 -12 -14 0
16 -12 -15 0
16 -13 -14 0
16 -13 -15 0
16 -14 -15 0
16 -16 -17 0
16 -16 -18 0
16 -16 -19 0
16 -16 -20 0
16 -17 -18 0
16 -17 -19 0
16 -17 -20 0
16 -18 -19 0
16 -18 -20 0
16 -19 -20 0
16 -21 -22 0
16 -21 -23 0
16 -21 -24 0
16 -21 -25 0
16 -22 -23 0
16 -22 -24 0
16 -22 -25 0
16 -23 -24 0
16 -23 -25 0
16 -24 -25 0
16 -26 -27 0
16 -26 -28 0
16 -26 -29 0
16 -26 -30 0
16 -27 -28 0
16 -27 -29 0
16 -27 -30 0
16 -28 -29 0
16 -28 -30 0
16 -29 -30 0
16 -31 -32 0
16 -31 -33 0
16 -31 -34 0
16 -31 -35 0
16 -32 -33 0
16 -32 -34 0
16 -32 -35 0
16 -33 -34 0
16 -33 -35 0
16 -34 -35 0
16 -36 -37 0
16 -36 -38 0
16 -36 -39 0
16 -36 -40 0
16 -37 -38 0
16 -37 -39 0
16 -37 -40 0
16 -38 -39 0
16 -38 -40 0
16 -39 -40 0
16 -41 -42 0
16 -41 -43 0
16 -41 -44 0
16 -41 -45 0
16 -42 -43 0
16 -42 -44 0
16 -42 -45 0
16 -43 -44 0
16 -43 -45 0
16 -44 -45 0
